(set-info :smt-lib-version 2.6)
(set-logic UF)
(set-info :source |
Generated by: David Deharbe, CLEARSY
Generated on: 2019-09-09
Generator: bxml;pog;pog2smt (Atelier B)
Application: B-method
Target solver: CVC4, Z3
|)
(set-info :license "https://creativecommons.org/licenses/by-nc/4.0/")
(set-info :category "industrial")
(set-info :status unknown)
; Prelude
(declare-sort U 0)
(declare-fun |*i| (U U) U)
(declare-fun |+i| (U U) U)
(declare-fun |-i| (U U) U)
(declare-fun idiv (U U) U)
(declare-fun |*r| (U U) U)
(declare-fun |+r| (U U) U)
(declare-fun |-r| (U U) U)
(declare-fun rdiv (U U) U)
(declare-fun modulo (U U) U)
(declare-fun |<i| (U U) Bool)
(declare-fun |<=i| (U U) Bool)
(declare-fun |>i| (U U) Bool)
(declare-fun |>=i| (U U) Bool)
(declare-fun |<r| (U U) Bool)
(declare-fun |<=r| (U U) Bool)
(declare-fun |>r| (U U) Bool)
(declare-fun |>=r| (U U) Bool)
(declare-fun iuminus (U) U)
(declare-fun ruminus (U) U)
(declare-fun TRUE () U)
(declare-fun FALSE () U)
(assert (not (= TRUE FALSE)))
(declare-fun empty () U)
(declare-fun bool (Bool) U)
(declare-fun BOOL () U)
(declare-fun INT () U)
(declare-fun INTEGER () U)
(declare-fun NAT () U)
(declare-fun NAT1 () U)
(declare-fun NATURAL () U)
(declare-fun NATURAL1 () U)
(declare-fun FLOAT () U)
(declare-fun MaxInt () U)
(declare-fun MinInt () U)
(declare-fun |STRING| () U)
(declare-fun REAL () U)
(declare-fun set_prod (U U) U)
(declare-fun set_diff (U U) U)
(declare-fun mapplet (U U) U)
(declare-fun |**i| (U U) U)
(declare-fun |**r| (U U) U)
(declare-fun |+->| (U U) U)
(declare-fun |+->>| (U U) U)
(declare-fun |-->| (U U) U)
(declare-fun |-->>| (U U) U)
(declare-fun |<->| (U U) U)
(declare-fun |>+>| (U U) U)
(declare-fun |>->| (U U) U)
(declare-fun |>+>>| (U U) U)
(declare-fun |>->>| (U U) U)
(declare-fun |->| (U U) U)
(declare-fun interval (U U) U)
(declare-fun composition (U U) U)
(declare-fun binary_inter (U U) U)
(declare-fun restriction_head (U U) U)
(declare-fun semicolon (U U) U)
(declare-fun |<+| (U U) U)
(declare-fun |<-| (U U) U)
(declare-fun domain_subtraction (U U) U)
(declare-fun domain_restriction (U U) U)
(declare-fun |><| (U U) U)
(declare-fun parallel_product (U U) U)
(declare-fun binary_union (U U) U)
(declare-fun restriction_tail (U U) U)
(declare-fun concatenate (U U) U)
(declare-fun range_restriction (U U) U)
(declare-fun range_subtraction (U U) U)
(declare-fun image (U U) U)
(declare-fun apply (U U) U)
(declare-fun prj1 (U U) U)
(declare-fun prj2 (U U) U)
(declare-fun iterate (U U) U)
(declare-fun |const| (U U) U)
(declare-fun rank (U U) U)
(declare-fun father (U U) U)
(declare-fun subtree (U U) U)
(declare-fun arity (U U) U)
(declare-fun |+f| (U U) U)
(declare-fun |-f| (U U) U)
(declare-fun |*f| (U U) U)
(declare-fun |fdiv| (U U) U)
(declare-fun tbin (U U U) U)
(declare-fun son (U U U) U)
(declare-fun mem (U U) Bool)
(declare-fun subset (U U) Bool)
(declare-fun strict_subset (U U) Bool)
(declare-fun |<=f| (U U) Bool)
(declare-fun |<f| (U U) Bool)
(declare-fun |>=f| (U U) Bool)
(declare-fun |>f| (U U) Bool)
(declare-fun imax (U) U)
(declare-fun imin (U) U)
(declare-fun rmax (U) U)
(declare-fun rmin (U) U)
(declare-fun card (U) U)
(declare-fun dom (U) U)
(declare-fun ran (U) U)
(declare-fun POW (U) U)
(declare-fun POW1 (U) U)
(declare-fun FIN (U) U)
(declare-fun FIN1 (U) U)
(declare-fun union (U) U)
(declare-fun inter (U) U)
(declare-fun seq (U) U)
(declare-fun seq1 (U) U)
(declare-fun iseq (U) U)
(declare-fun iseq1 (U) U)
(declare-fun inverse (U) U)
(declare-fun size (U) U)
(declare-fun perm (U) U)
(declare-fun first (U) U)
(declare-fun last (U) U)
(declare-fun id (U) U)
(declare-fun closure (U) U)
(declare-fun closure1 (U) U)
(declare-fun tail (U) U)
(declare-fun front (U) U)
(declare-fun reverse (U) U)
(declare-fun rev (U) U)
(declare-fun conc (U) U)
(declare-fun succ (U) U)
(declare-fun pred (U) U)
(declare-fun rel (U) U)
(declare-fun fnc (U) U)
(declare-fun real (U) U)
(declare-fun floor (U) U)
(declare-fun ceiling (U) U)
(declare-fun tree (U) U)
(declare-fun btree (U) U)
(declare-fun top (U) U)
(declare-fun sons (U) U)
(declare-fun prefix (U) U)
(declare-fun postfix (U) U)
(declare-fun sizet (U) U)
(declare-fun mirror (U) U)
(declare-fun left (U) U)
(declare-fun right (U) U)
(declare-fun infix (U) U)
(declare-fun ubin (U) U)
(declare-fun SEQ (U) U)
(declare-fun SET (U) U)
; Opaque formulas
(declare-fun e0 () U)
(declare-fun e50 () U)
(declare-fun e175 () U)
(declare-fun e59 () U)
(declare-fun e185 () U)
(declare-fun e39 () U)
(declare-fun e36 () U)
(declare-fun e37 () U)
(declare-fun e160 () U)
(declare-fun e41 () U)
(declare-fun e46 () U)
(declare-fun e38 () U)
(declare-fun e34 () U)
(declare-fun e132 () U)
(declare-fun e162 () U)
(declare-fun e167 () U)
(declare-fun e35 () U)
(declare-fun e164 () U)
(declare-fun e32 () U)
(declare-fun e40 () U)
(declare-fun e33 () U)
(declare-fun e43 () U)
(declare-fun e44 () U)
(declare-fun e45 () U)
(declare-fun e134 () U)
(declare-fun e42 () U)
(declare-fun e138 () U)
(declare-fun e136 () U)
(declare-fun e47 () U)
(declare-fun e130 () U)
(declare-fun e49 () U)
(declare-fun g_s0_1 () U)
(declare-fun g_s1_2 () U)
(declare-fun g_s10_11 () U)
(declare-fun g_s100_122 () U)
(declare-fun g_s101_123 () U)
(declare-fun g_s102_124 () U)
(declare-fun g_s103_125 () U)
(declare-fun g_s104_126 () U)
(declare-fun g_s105_127 () U)
(declare-fun g_s106_128 () U)
(declare-fun g_s107_129 () U)
(declare-fun g_s108_131 () U)
(declare-fun g_s109_133 () U)
(declare-fun g_s11_13 () U)
(declare-fun g_s110_135 () U)
(declare-fun g_s111_137 () U)
(declare-fun g_s112_139 () U)
(declare-fun g_s113_140 () U)
(declare-fun g_s114_141 () U)
(declare-fun g_s115_142 () U)
(declare-fun g_s116_143 () U)
(declare-fun g_s117_144 () U)
(declare-fun g_s118_145 () U)
(declare-fun g_s119_146 () U)
(declare-fun g_s12_12 () U)
(declare-fun g_s120_147 () U)
(declare-fun g_s121_148 () U)
(declare-fun g_s122_149 () U)
(declare-fun g_s123_150 () U)
(declare-fun g_s124_151 () U)
(declare-fun g_s125_152 () U)
(declare-fun g_s126_153 () U)
(declare-fun g_s127_154 () U)
(declare-fun g_s128_155 () U)
(declare-fun g_s129_156 () U)
(declare-fun g_s13_14 () U)
(declare-fun g_s130_157 () U)
(declare-fun g_s131_158 () U)
(declare-fun g_s132_159 () U)
(declare-fun g_s133_161 () U)
(declare-fun g_s134_163 () U)
(declare-fun g_s135_165 () U)
(declare-fun g_s136_166 () U)
(declare-fun g_s137_168 () U)
(declare-fun g_s138_169 () U)
(declare-fun g_s139_170 () U)
(declare-fun g_s14_16 () U)
(declare-fun g_s140_171 () U)
(declare-fun g_s141_172 () U)
(declare-fun g_s142_173 () U)
(declare-fun g_s143_174 () U)
(declare-fun g_s144_176 () U)
(declare-fun g_s145_177 () U)
(declare-fun g_s146_178 () U)
(declare-fun g_s147_179 () U)
(declare-fun g_s148_180 () U)
(declare-fun g_s149_181 () U)
(declare-fun g_s15_15 () U)
(declare-fun g_s150_182 () U)
(declare-fun g_s151_183 () U)
(declare-fun g_s152_184 () U)
(declare-fun g_s153_186 () U)
(declare-fun g_s154_187 () U)
(declare-fun g_s155_188 () U)
(declare-fun g_s156_189 () U)
(declare-fun g_s157_190 () U)
(declare-fun g_s158_191 () U)
(declare-fun g_s159_192 () U)
(declare-fun g_s16_17 () U)
(declare-fun g_s160_193 () U)
(declare-fun g_s161_194 () U)
(declare-fun g_s162_195 () U)
(declare-fun g_s163_196 () U)
(declare-fun g_s164_197 () U)
(declare-fun g_s165_198 () U)
(declare-fun g_s166_199 () U)
(declare-fun g_s167_200 () U)
(declare-fun g_s168_201 () U)
(declare-fun g_s169_202 () U)
(declare-fun g_s17_18 () U)
(declare-fun g_s170_203 () U)
(declare-fun g_s171_204 () U)
(declare-fun g_s172_205 () U)
(declare-fun g_s173_206 () U)
(declare-fun g_s174_207 () U)
(declare-fun g_s175_208 () U)
(declare-fun g_s176_209 () U)
(declare-fun g_s177_210 () U)
(declare-fun g_s178_211 () U)
(declare-fun g_s179_212 () U)
(declare-fun g_s18_19 () U)
(declare-fun g_s180_213 () U)
(declare-fun g_s181_214 () U)
(declare-fun g_s182_215 () U)
(declare-fun g_s183_216 () U)
(declare-fun g_s184_217 () U)
(declare-fun g_s185_218 () U)
(declare-fun g_s186_219 () U)
(declare-fun g_s187_220 () U)
(declare-fun g_s188_221 () U)
(declare-fun g_s189_222 () U)
(declare-fun g_s19_20 () U)
(declare-fun g_s190_223 () U)
(declare-fun g_s191_224 () U)
(declare-fun g_s192_225 () U)
(declare-fun g_s193_226 () U)
(declare-fun g_s194_227 () U)
(declare-fun g_s195_228 () U)
(declare-fun g_s196_229 () U)
(declare-fun g_s197_230 () U)
(declare-fun g_s198_231 () U)
(declare-fun g_s199_232 () U)
(declare-fun g_s2_3 () U)
(declare-fun g_s20_21 () U)
(declare-fun g_s200_233 () U)
(declare-fun g_s201_234 () U)
(declare-fun g_s202_235 () U)
(declare-fun g_s203_236 () U)
(declare-fun g_s204_237 () U)
(declare-fun g_s205_238 () U)
(declare-fun g_s206_239 () U)
(declare-fun g_s207_240 () U)
(declare-fun g_s208_241 () U)
(declare-fun g_s209_243 () U)
(declare-fun g_s21_22 () U)
(declare-fun g_s210_242 () U)
(declare-fun g_s211_244 () U)
(declare-fun g_s212_245 () U)
(declare-fun g_s213_246 () U)
(declare-fun g_s214_248 () U)
(declare-fun g_s219_249 () U)
(declare-fun g_s22_23 () U)
(declare-fun g_s220_251 () U)
(declare-fun g_s221_252 () U)
(declare-fun g_s222_253 () U)
(declare-fun g_s223_254 () U)
(declare-fun g_s224_255 () U)
(declare-fun g_s225_256 () U)
(declare-fun g_s226_257 () U)
(declare-fun g_s227_258 () U)
(declare-fun g_s228_259 () U)
(declare-fun g_s229_260 () U)
(declare-fun g_s23_24 () U)
(declare-fun g_s230_261 () U)
(declare-fun g_s231_262 () U)
(declare-fun g_s232_263 () U)
(declare-fun g_s233_264 () U)
(declare-fun g_s234_265 () U)
(declare-fun g_s235_266 () U)
(declare-fun g_s236_267 () U)
(declare-fun g_s237_268 () U)
(declare-fun g_s238_269 () U)
(declare-fun g_s239_270 () U)
(declare-fun g_s24_25 () U)
(declare-fun g_s240_271 () U)
(declare-fun g_s241_272 () U)
(declare-fun g_s242_273 () U)
(declare-fun g_s243_274 () U)
(declare-fun g_s244_275 () U)
(declare-fun g_s245_276 () U)
(declare-fun g_s246_277 () U)
(declare-fun g_s25_26 () U)
(declare-fun g_s250_278 () U)
(declare-fun g_s250_280 () U)
(declare-fun g_s251_279 () U)
(declare-fun g_s26_27 () U)
(declare-fun g_s27_28 () U)
(declare-fun g_s28_29 () U)
(declare-fun g_s29_30 () U)
(declare-fun g_s3_4 () U)
(declare-fun g_s30_31 () U)
(declare-fun g_s31_48 () U)
(declare-fun g_s32_51 () U)
(declare-fun g_s33_52 () U)
(declare-fun g_s34_53 () U)
(declare-fun g_s35_54 () U)
(declare-fun g_s36_55 () U)
(declare-fun g_s37_56 () U)
(declare-fun g_s38_57 () U)
(declare-fun g_s39_58 () U)
(declare-fun g_s4_5 () U)
(declare-fun g_s40_60 () U)
(declare-fun g_s41_61 () U)
(declare-fun g_s42_62 () U)
(declare-fun g_s43_63 () U)
(declare-fun g_s44_64 () U)
(declare-fun g_s45_65 () U)
(declare-fun g_s46_66 () U)
(declare-fun g_s47_67 () U)
(declare-fun g_s5_6 () U)
(declare-fun g_s50_69 () U)
(declare-fun g_s51_71 () U)
(declare-fun g_s52_73 () U)
(declare-fun g_s53_75 () U)
(declare-fun g_s54_76 () U)
(declare-fun g_s55_77 () U)
(declare-fun g_s56_78 () U)
(declare-fun g_s57_79 () U)
(declare-fun g_s58_80 () U)
(declare-fun g_s59_81 () U)
(declare-fun g_s6_7 () U)
(declare-fun g_s60_82 () U)
(declare-fun g_s61_83 () U)
(declare-fun g_s62_84 () U)
(declare-fun g_s63_85 () U)
(declare-fun g_s64_86 () U)
(declare-fun g_s65_87 () U)
(declare-fun g_s66_88 () U)
(declare-fun g_s67_89 () U)
(declare-fun g_s68_90 () U)
(declare-fun g_s69_91 () U)
(declare-fun g_s7_9 () U)
(declare-fun g_s70_92 () U)
(declare-fun g_s71_93 () U)
(declare-fun g_s72_94 () U)
(declare-fun g_s73_95 () U)
(declare-fun g_s74_96 () U)
(declare-fun g_s75_97 () U)
(declare-fun g_s76_98 () U)
(declare-fun g_s77_99 () U)
(declare-fun g_s78_100 () U)
(declare-fun g_s79_101 () U)
(declare-fun g_s8_8 () U)
(declare-fun g_s80_102 () U)
(declare-fun g_s81_103 () U)
(declare-fun g_s82_104 () U)
(declare-fun g_s83_105 () U)
(declare-fun g_s84_106 () U)
(declare-fun g_s85_107 () U)
(declare-fun g_s86_108 () U)
(declare-fun g_s87_109 () U)
(declare-fun g_s88_110 () U)
(declare-fun g_s89_111 () U)
(declare-fun g_s9_10 () U)
(declare-fun g_s90_112 () U)
(declare-fun g_s91_113 () U)
(declare-fun g_s92_114 () U)
(declare-fun g_s93_115 () U)
(declare-fun g_s94_116 () U)
(declare-fun g_s95_117 () U)
(declare-fun g_s96_118 () U)
(declare-fun g_s97_119 () U)
(declare-fun g_s98_120 () U)
(declare-fun g_s99_121 () U)
(declare-fun e74 () U)
(declare-fun e70 () U)
(declare-fun e68 () U)
(declare-fun e72 () U)
(declare-fun e247 () U)
(declare-fun e250 () U)
; Defines
(define-fun |def_B definitions| () Bool (and (= NAT (interval e0 MaxInt)) (= INT (interval MinInt MaxInt))))
(define-fun |def_ctx| () Bool (and (not (= g_s0_1 empty)) (= g_s1_2 (SET (mapplet g_s6_7 (mapplet g_s5_6 (mapplet g_s4_5 (mapplet g_s3_4 g_s2_3)))))) (mem g_s7_9 g_s8_8) (mem g_s9_10 g_s8_8) (mem g_s10_11 g_s8_8) (mem g_s11_13 g_s12_12) (mem g_s13_14 g_s12_12) (mem g_s14_16 g_s15_15) (mem g_s16_17 g_s15_15) (mem g_s17_18 g_s15_15) (mem g_s18_19 g_s15_15) (mem g_s19_20 g_s15_15) (mem g_s20_21 g_s12_12) (mem g_s21_22 g_s12_12) (mem g_s22_23 g_s12_12) (mem g_s23_24 g_s12_12) (mem g_s24_25 g_s8_8) (mem g_s25_26 g_s8_8) (mem g_s26_27 g_s8_8) (mem g_s27_28 g_s12_12) (mem g_s28_29 g_s12_12) (mem g_s29_30 g_s12_12) (mem g_s30_31 g_s12_12) (= g_s7_9 e32) (= g_s10_11 e33) (= g_s9_10 e34) (= g_s11_13 e0) (= g_s13_14 e0) (= g_s14_16 e35) (= g_s26_27 e36) (= g_s16_17 e37) (= g_s17_18 e38) (= g_s18_19 e39) (= g_s21_22 e40) (= g_s19_20 e39) (= g_s20_21 e41) (= g_s22_23 e42) (= g_s23_24 e43) (= g_s28_29 e44) (= g_s29_30 e42) (= g_s24_25 e45) (= g_s25_26 e45) (mem g_s27_28 g_s12_12) (= g_s27_28 e40) (= g_s30_31 e46) (= g_s15_15 (interval e0 e35)) (= g_s12_12 (interval e0 e42)) (= g_s31_48 (interval e0 e47)) (= g_s8_8 (interval e0 e49)) (= g_s32_51 (interval e50 e35)) (= g_s33_52 (interval e50 e42)) (= g_s34_53 (interval e50 e47)) (= g_s35_54 (interval e50 e49)) (= g_s36_55 g_s31_48) (subset g_s37_56 g_s0_1) (mem g_s38_57 g_s0_1) (= g_s37_56 (set_diff g_s0_1 (SET g_s38_57))) (= g_s39_58 g_s31_48) (= g_s40_60 (interval e0 e59)) (= g_s41_61 (interval e0 e59)) (= g_s42_62 (|-->| g_s40_60 g_s12_12)) (= g_s43_63 (|-->| g_s41_61 g_s12_12)) (= g_s44_64 g_s15_15) (= g_s45_65 g_s12_12) (= g_s46_66 (interval e0 e40)) (mem g_s47_67 (|-->| (set_prod g_s8_8 g_s8_8) g_s8_8)) (= g_s47_67 e68) (mem g_s50_69 (|-->| (set_prod g_s8_8 g_s8_8) g_s8_8)) (= g_s50_69 e70) (mem g_s51_71 (|-->| (set_prod g_s8_8 g_s8_8) g_s8_8)) (= g_s51_71 e72) (mem g_s52_73 (|-->| (set_prod g_s8_8 g_s8_8) g_s8_8)) (= g_s52_73 e74)))
(define-fun |def_seext| () Bool true)
(define-fun |def_lprp| () Bool (and (not (= g_s53_75 empty)) (not (= g_s54_76 empty)) (not (= g_s55_77 empty)) (not (= g_s56_78 empty)) (not (= g_s57_79 empty)) (not (= g_s58_80 empty)) (not (= g_s59_81 empty)) (not (= g_s60_82 empty)) (not (= g_s61_83 empty)) (not (= g_s62_84 empty)) (= g_s63_85 (SET (mapplet g_s79_101 (mapplet g_s78_100 (mapplet g_s77_99 (mapplet g_s76_98 (mapplet g_s75_97 (mapplet g_s74_96 (mapplet g_s73_95 (mapplet g_s72_94 (mapplet g_s71_93 (mapplet g_s70_92 (mapplet g_s69_91 (mapplet g_s68_90 (mapplet g_s67_89 (mapplet g_s66_88 (mapplet g_s65_87 g_s64_86))))))))))))))))) (= g_s80_102 (SET (mapplet g_s83_105 (mapplet g_s82_104 g_s81_103)))) (= g_s84_106 (SET (mapplet g_s103_125 (mapplet g_s102_124 (mapplet g_s101_123 (mapplet g_s100_122 (mapplet g_s99_121 (mapplet g_s98_120 (mapplet g_s97_119 (mapplet g_s96_118 (mapplet g_s95_117 (mapplet g_s94_116 (mapplet g_s93_115 (mapplet g_s92_114 (mapplet g_s91_113 (mapplet g_s90_112 (mapplet g_s89_111 (mapplet g_s88_110 (mapplet g_s87_109 (mapplet g_s86_108 g_s85_107)))))))))))))))))))) (= g_s104_126 (SET (mapplet g_s106_128 g_s105_127))) (mem g_s107_129 g_s8_8) (= g_s107_129 e130) (mem g_s108_131 g_s15_15) (= g_s108_131 e132) (mem g_s109_133 g_s8_8) (= g_s109_133 e134) (mem g_s110_135 g_s8_8) (= g_s110_135 e136) (mem g_s111_137 g_s8_8) (= g_s111_137 e138) (subset g_s112_139 g_s60_82) (mem g_s113_140 g_s60_82) (= g_s112_139 (set_diff g_s60_82 (SET g_s113_140))) (subset g_s114_141 g_s53_75) (mem g_s115_142 g_s53_75) (not (mem g_s115_142 g_s114_141)) (subset g_s116_143 g_s54_76) (mem g_s117_144 g_s54_76) (= g_s116_143 (set_diff g_s54_76 (SET g_s117_144))) (subset g_s118_145 g_s55_77) (mem g_s119_146 g_s55_77) (= g_s118_145 (set_diff g_s55_77 (SET g_s119_146))) (subset g_s120_147 g_s56_78) (mem g_s121_148 g_s56_78) (= g_s120_147 (set_diff g_s56_78 (SET g_s121_148))) (subset g_s122_149 g_s61_83) (mem g_s123_150 g_s61_83) (= g_s122_149 (set_diff g_s61_83 (SET g_s123_150))) (subset g_s124_151 g_s62_84) (mem g_s125_152 g_s62_84) (= g_s124_151 (set_diff g_s62_84 (SET g_s125_152))) (= g_s126_153 (interval e0 g_s10_11)) (= g_s127_154 (interval e0 g_s107_129)) (= g_s128_155 (interval e0 (idiv g_s107_129 g_s111_137))) (= g_s129_156 g_s8_8) (= g_s130_157 g_s8_8) (= g_s131_158 g_s8_8) (= g_s132_159 (interval e0 e37)) (= g_s133_161 (interval e0 e160)) (= g_s134_163 (interval e0 e162)) (= g_s135_165 (interval e0 e164)) (= g_s136_166 (interval e50 e162)) (= g_s137_168 (interval e0 e167)) (= g_s138_169 (interval e0 e40)) (= g_s139_170 (interval e0 g_s22_23)) (= g_s140_171 (interval e0 g_s20_21)) (= g_s141_172 (interval e0 g_s21_22)) (= g_s142_173 (interval e0 g_s16_17)) (= g_s143_174 (interval e0 g_s17_18)) (= g_s144_176 (interval e50 e175)) (subset g_s145_177 g_s58_80) (mem g_s146_178 g_s58_80) (= g_s145_177 (set_diff g_s58_80 (SET g_s146_178))) (subset g_s147_179 g_s57_79) (mem g_s148_180 g_s57_79) (= g_s147_179 (set_diff g_s57_79 (SET g_s148_180))) (mem g_s149_181 g_s15_15) (= g_s149_181 e37) (= g_s150_182 (interval e50 g_s149_181)) (subset g_s151_183 g_s59_81) (mem g_s152_184 g_s59_81) (= g_s151_183 (set_diff g_s59_81 (SET g_s152_184))) (= g_s153_186 (interval e50 e185)) (mem g_s154_187 g_s15_15) (= g_s154_187 e0) (= g_s155_188 (interval e50 g_s22_23)) (= g_s156_189 (interval e50 g_s20_21)) (= g_s157_190 (interval e50 e40)) (= g_s158_191 (interval e0 e40)) (= g_s159_192 (interval e0 g_s14_16)) (= g_s160_193 g_s12_12) (= g_s161_194 (interval e50 g_s18_19)) (= g_s162_195 (interval e50 g_s19_20)) (= g_s163_196 (|-->| g_s153_186 BOOL)) (= g_s164_197 (|-->| g_s155_188 BOOL)) (= g_s165_198 (|-->| g_s155_188 g_s159_192)) (= g_s166_199 (|+->| g_s155_188 g_s159_192)) (= g_s167_200 (|+->| g_s155_188 g_s56_78)) (= g_s168_201 (|+->| g_s155_188 g_s128_155)) (= g_s169_202 (|+->| g_s155_188 g_s132_159)) (= g_s170_203 (|+->| g_s155_188 g_s133_161)) (= g_s171_204 (|-->| g_s132_159 g_s56_78)) (= g_s172_205 (|>->| g_s133_161 g_s56_78)) (= g_s173_206 (|-->| g_s132_159 g_s128_155)) (= g_s174_207 (|-->| g_s133_161 g_s128_155)) (= g_s175_208 (|+->| g_s155_188 g_s173_206)) (= g_s176_209 (|+->| g_s155_188 g_s174_207)) (= g_s177_210 (|+->| g_s155_188 g_s171_204)) (= g_s178_211 (|+->| g_s155_188 g_s172_205)) (= g_s179_212 (|-->| g_s151_183 g_s37_56)) (= g_s180_213 (|-->| g_s145_177 g_s37_56)) (= g_s181_214 (|-->| g_s151_183 g_s0_1)) (= g_s182_215 (|-->| g_s151_183 g_s60_82)) (= g_s183_216 (|-->| g_s145_177 g_s60_82)) (= g_s184_217 (|-->| g_s161_194 g_s37_56)) (= g_s185_218 (|-->| g_s162_195 g_s37_56)) (= g_s186_219 (|-->| g_s144_176 g_s60_82)) (= g_s187_220 (|-->| g_s151_183 g_s186_219)) (= g_s188_221 (|-->| g_s145_177 g_s186_219)) (= g_s189_222 (|-->| g_s150_182 g_s60_82)) (= g_s190_223 (|-->| g_s150_182 BOOL)) (= g_s191_224 (|-->| g_s156_189 BOOL)) (= g_s192_225 (|-->| g_s156_189 g_s159_192)) (= g_s193_226 (|-->| g_s156_189 g_s56_78)) (= g_s194_227 (|-->| g_s156_189 g_s128_155)) (= g_s195_228 (|-->| g_s156_189 g_s132_159)) (= g_s196_229 (|-->| g_s156_189 g_s133_161)) (= g_s197_230 (|-->| g_s156_189 g_s171_204)) (= g_s198_231 (|+->| g_s155_188 g_s137_168)) (= g_s199_232 (|-->| g_s137_168 g_s56_78)) (= g_s200_233 (|-->| g_s137_168 g_s128_155)) (= g_s201_234 (|+->| g_s155_188 g_s199_232)) (= g_s202_235 (|+->| g_s155_188 g_s200_233)) (= g_s203_236 (|-->| g_s136_166 g_s159_192)) (= g_s204_237 (|-->| g_s136_166 g_s163_196)) (= g_s205_238 (|-->| g_s136_166 g_s128_155)) (= g_s206_239 (|-->| g_s136_166 BOOL)) (= g_s207_240 (|-->| g_s137_168 g_s57_79)) (= g_s208_241 (|-->| g_s137_168 g_s127_154)) (= g_s209_243 (|-->| g_s137_168 g_s210_242)) (= g_s211_244 (|-->| g_s135_165 g_s57_79)) (= g_s212_245 (|-->| g_s135_165 g_s127_154)) (= g_s213_246 (|-->| g_s135_165 g_s210_242)) (= g_s214_248 e247) (mem g_s219_249 g_s214_248) (= g_s219_249 e250) (= g_s220_251 (|-->| g_s120_147 g_s214_248)) (mem g_s221_252 g_s62_84) (mem g_s222_253 NAT) (mem g_s223_254 NAT) (mem g_s224_255 NAT) (mem g_s225_256 NAT) (= g_s222_253 e40) (= g_s223_254 e167) (= g_s224_255 e167) (= g_s225_256 e162) (= (card g_s151_183) g_s16_17) (= (card g_s145_177) g_s17_18) (= (card g_s155_188) g_s22_23) (= (card g_s156_189) g_s20_21) (mem g_s226_257 (iseq g_s145_177)) (mem g_s226_257 (|>->>| (interval e50 g_s17_18) g_s145_177)) (mem g_s227_258 (iseq g_s151_183)) (mem g_s227_258 (|>->>| (interval e50 g_s16_17) g_s151_183)) (= g_s228_259 (interval e0 g_s28_29)) (= g_s229_260 (interval e0 g_s29_30)) (= g_s230_261 (|-->| g_s155_188 g_s163_196)) (= g_s231_262 (|+->| g_s155_188 g_s163_196)) (= g_s232_263 (interval e0 e59)) (= g_s233_264 (|-->| g_s232_263 g_s229_260)) (= g_s234_265 (interval e0 e167)) (= g_s235_266 (|-->| g_s234_265 g_s61_83)) (mem g_s236_267 g_s163_196) (mem g_s237_268 g_s235_266) (= g_s238_269 (|-->| g_s157_190 g_s137_168)) (= g_s239_270 (|-->| g_s157_190 g_s139_170)) (= g_s240_271 (|-->| g_s157_190 g_s159_192)) (= g_s241_272 (|-->| g_s157_190 BOOL)) (= g_s242_273 (|-->| g_s157_190 g_s163_196)) (= g_s243_274 (|-->| g_s157_190 g_s199_232)) (= g_s244_275 (|-->| g_s157_190 g_s200_233)) (= g_s244_275 (|-->| g_s157_190 g_s200_233))))
(define-fun |def_inprp| () Bool  (= g_s210_242 (SET (mapplet g_s246_277 g_s245_276))))
(define-fun |def_inext| () Bool true)
(define-fun |def_inv| () Bool true)
(define-fun |def_ass| () Bool true)
(define-fun |def_cst| () Bool true)
(define-fun |def_sets| () Bool (and (not (= g_s53_75 empty)) (not (= g_s54_76 empty)) (not (= g_s55_77 empty)) (not (= g_s56_78 empty)) (not (= g_s57_79 empty)) (not (= g_s58_80 empty)) (not (= g_s59_81 empty)) (not (= g_s60_82 empty)) (not (= g_s61_83 empty)) (not (= g_s62_84 empty)) (= g_s63_85 (SET (mapplet g_s79_101 (mapplet g_s78_100 (mapplet g_s77_99 (mapplet g_s76_98 (mapplet g_s75_97 (mapplet g_s74_96 (mapplet g_s73_95 (mapplet g_s72_94 (mapplet g_s71_93 (mapplet g_s70_92 (mapplet g_s69_91 (mapplet g_s68_90 (mapplet g_s67_89 (mapplet g_s66_88 (mapplet g_s65_87 g_s64_86))))))))))))))))) (= g_s80_102 (SET (mapplet g_s83_105 (mapplet g_s82_104 g_s81_103)))) (= g_s84_106 (SET (mapplet g_s103_125 (mapplet g_s102_124 (mapplet g_s101_123 (mapplet g_s100_122 (mapplet g_s99_121 (mapplet g_s98_120 (mapplet g_s97_119 (mapplet g_s96_118 (mapplet g_s95_117 (mapplet g_s94_116 (mapplet g_s93_115 (mapplet g_s92_114 (mapplet g_s91_113 (mapplet g_s90_112 (mapplet g_s89_111 (mapplet g_s88_110 (mapplet g_s87_109 (mapplet g_s86_108 g_s85_107)))))))))))))))))))) (= g_s104_126 (SET (mapplet g_s106_128 g_s105_127)))))
; PO group 0 
(push 1)
(assert |def_B definitions|)
(assert |def_ctx|)
(assert |def_cst|)
(assert |def_sets|)
(define-fun lh_1 () Bool (mem g_s107_129 g_s8_8))
(define-fun lh_2 () Bool (= g_s107_129 e130))
(define-fun lh_3 () Bool (mem g_s108_131 g_s15_15))
(define-fun lh_4 () Bool (= g_s108_131 e132))
(define-fun lh_5 () Bool (mem g_s109_133 g_s8_8))
(define-fun lh_6 () Bool (= g_s109_133 e134))
(define-fun lh_7 () Bool (mem g_s110_135 g_s8_8))
(define-fun lh_8 () Bool (= g_s110_135 e136))
(define-fun lh_9 () Bool (mem g_s111_137 g_s8_8))
(define-fun lh_10 () Bool (= g_s111_137 e138))
(define-fun lh_11 () Bool (subset g_s112_139 g_s60_82))
(define-fun lh_12 () Bool (mem g_s113_140 g_s60_82))
(define-fun lh_13 () Bool (= g_s112_139 (set_diff g_s60_82 (SET g_s113_140))))
(define-fun lh_14 () Bool (subset g_s114_141 g_s53_75))
(define-fun lh_15 () Bool (mem g_s115_142 g_s53_75))
(define-fun lh_16 () Bool (not (mem g_s115_142 g_s114_141)))
(define-fun lh_17 () Bool (subset g_s116_143 g_s54_76))
(define-fun lh_18 () Bool (mem g_s117_144 g_s54_76))
(define-fun lh_19 () Bool (= g_s116_143 (set_diff g_s54_76 (SET g_s117_144))))
(define-fun lh_20 () Bool (subset g_s118_145 g_s55_77))
(define-fun lh_21 () Bool (mem g_s119_146 g_s55_77))
(define-fun lh_22 () Bool (= g_s118_145 (set_diff g_s55_77 (SET g_s119_146))))
(define-fun lh_23 () Bool (subset g_s120_147 g_s56_78))
(define-fun lh_24 () Bool (mem g_s121_148 g_s56_78))
(define-fun lh_25 () Bool (= g_s120_147 (set_diff g_s56_78 (SET g_s121_148))))
(define-fun lh_26 () Bool (subset g_s122_149 g_s61_83))
(define-fun lh_27 () Bool (mem g_s123_150 g_s61_83))
(define-fun lh_28 () Bool (= g_s122_149 (set_diff g_s61_83 (SET g_s123_150))))
(define-fun lh_29 () Bool (subset g_s124_151 g_s62_84))
(define-fun lh_30 () Bool (mem g_s125_152 g_s62_84))
(define-fun lh_31 () Bool (= g_s124_151 (set_diff g_s62_84 (SET g_s125_152))))
(define-fun lh_32 () Bool (= g_s126_153 (interval e0 g_s10_11)))
(define-fun lh_33 () Bool (= g_s127_154 (interval e0 g_s107_129)))
(define-fun lh_34 () Bool (= g_s128_155 (interval e0 (idiv g_s107_129 g_s111_137))))
(define-fun lh_35 () Bool (= g_s129_156 g_s8_8))
(define-fun lh_36 () Bool (= g_s130_157 g_s8_8))
(define-fun lh_37 () Bool (= g_s131_158 g_s8_8))
(define-fun lh_38 () Bool (= g_s132_159 (interval e0 e37)))
(define-fun lh_39 () Bool (= g_s133_161 (interval e0 e160)))
(define-fun lh_40 () Bool (= g_s134_163 (interval e0 e162)))
(define-fun lh_41 () Bool (= g_s135_165 (interval e0 e164)))
(define-fun lh_42 () Bool (= g_s136_166 (interval e50 e162)))
(define-fun lh_43 () Bool (= g_s137_168 (interval e0 e167)))
(define-fun lh_44 () Bool (= g_s138_169 (interval e0 e40)))
(define-fun lh_45 () Bool (= g_s139_170 (interval e0 g_s22_23)))
(define-fun lh_46 () Bool (= g_s140_171 (interval e0 g_s20_21)))
(define-fun lh_47 () Bool (= g_s141_172 (interval e0 g_s21_22)))
(define-fun lh_48 () Bool (= g_s142_173 (interval e0 g_s16_17)))
(define-fun lh_49 () Bool (= g_s143_174 (interval e0 g_s17_18)))
(define-fun lh_50 () Bool (= g_s144_176 (interval e50 e175)))
(define-fun lh_51 () Bool (subset g_s145_177 g_s58_80))
(define-fun lh_52 () Bool (mem g_s146_178 g_s58_80))
(define-fun lh_53 () Bool (= g_s145_177 (set_diff g_s58_80 (SET g_s146_178))))
(define-fun lh_54 () Bool (subset g_s147_179 g_s57_79))
(define-fun lh_55 () Bool (mem g_s148_180 g_s57_79))
(define-fun lh_56 () Bool (= g_s147_179 (set_diff g_s57_79 (SET g_s148_180))))
(define-fun lh_57 () Bool (mem g_s149_181 g_s15_15))
(define-fun lh_58 () Bool (= g_s149_181 e37))
(define-fun lh_59 () Bool (= g_s150_182 (interval e50 g_s149_181)))
(define-fun lh_60 () Bool (subset g_s151_183 g_s59_81))
(define-fun lh_61 () Bool (mem g_s152_184 g_s59_81))
(define-fun lh_62 () Bool (= g_s151_183 (set_diff g_s59_81 (SET g_s152_184))))
(define-fun lh_63 () Bool (= g_s153_186 (interval e50 e185)))
(define-fun lh_64 () Bool (mem g_s154_187 g_s15_15))
(define-fun lh_65 () Bool (= g_s154_187 e0))
(define-fun lh_66 () Bool (= g_s155_188 (interval e50 g_s22_23)))
(define-fun lh_67 () Bool (= g_s156_189 (interval e50 g_s20_21)))
(define-fun lh_68 () Bool (= g_s157_190 (interval e50 e40)))
(define-fun lh_69 () Bool (= g_s158_191 (interval e0 e40)))
(define-fun lh_70 () Bool (= g_s159_192 (interval e0 g_s14_16)))
(define-fun lh_71 () Bool (= g_s160_193 g_s12_12))
(define-fun lh_72 () Bool (= g_s161_194 (interval e50 g_s18_19)))
(define-fun lh_73 () Bool (= g_s162_195 (interval e50 g_s19_20)))
(define-fun lh_74 () Bool (= g_s163_196 (|-->| g_s153_186 BOOL)))
(define-fun lh_75 () Bool (= g_s164_197 (|-->| g_s155_188 BOOL)))
(define-fun lh_76 () Bool (= g_s165_198 (|-->| g_s155_188 g_s159_192)))
(define-fun lh_77 () Bool (= g_s166_199 (|+->| g_s155_188 g_s159_192)))
(define-fun lh_78 () Bool (= g_s167_200 (|+->| g_s155_188 g_s56_78)))
(define-fun lh_79 () Bool (= g_s168_201 (|+->| g_s155_188 g_s128_155)))
(define-fun lh_80 () Bool (= g_s169_202 (|+->| g_s155_188 g_s132_159)))
(define-fun lh_81 () Bool (= g_s170_203 (|+->| g_s155_188 g_s133_161)))
(define-fun lh_82 () Bool (= g_s171_204 (|-->| g_s132_159 g_s56_78)))
(define-fun lh_83 () Bool (= g_s172_205 (|>->| g_s133_161 g_s56_78)))
(define-fun lh_84 () Bool (= g_s173_206 (|-->| g_s132_159 g_s128_155)))
(define-fun lh_85 () Bool (= g_s174_207 (|-->| g_s133_161 g_s128_155)))
(define-fun lh_86 () Bool (= g_s175_208 (|+->| g_s155_188 g_s173_206)))
(define-fun lh_87 () Bool (= g_s176_209 (|+->| g_s155_188 g_s174_207)))
(define-fun lh_88 () Bool (= g_s177_210 (|+->| g_s155_188 g_s171_204)))
(define-fun lh_89 () Bool (= g_s178_211 (|+->| g_s155_188 g_s172_205)))
(define-fun lh_90 () Bool (= g_s179_212 (|-->| g_s151_183 g_s37_56)))
(define-fun lh_91 () Bool (= g_s180_213 (|-->| g_s145_177 g_s37_56)))
(define-fun lh_92 () Bool (= g_s181_214 (|-->| g_s151_183 g_s0_1)))
(define-fun lh_93 () Bool (= g_s182_215 (|-->| g_s151_183 g_s60_82)))
(define-fun lh_94 () Bool (= g_s183_216 (|-->| g_s145_177 g_s60_82)))
(define-fun lh_95 () Bool (= g_s184_217 (|-->| g_s161_194 g_s37_56)))
(define-fun lh_96 () Bool (= g_s185_218 (|-->| g_s162_195 g_s37_56)))
(define-fun lh_97 () Bool (= g_s186_219 (|-->| g_s144_176 g_s60_82)))
(define-fun lh_98 () Bool (= g_s187_220 (|-->| g_s151_183 g_s186_219)))
(define-fun lh_99 () Bool (= g_s188_221 (|-->| g_s145_177 g_s186_219)))
(define-fun lh_100 () Bool (= g_s189_222 (|-->| g_s150_182 g_s60_82)))
(define-fun lh_101 () Bool (= g_s190_223 (|-->| g_s150_182 BOOL)))
(define-fun lh_102 () Bool (= g_s191_224 (|-->| g_s156_189 BOOL)))
(define-fun lh_103 () Bool (= g_s192_225 (|-->| g_s156_189 g_s159_192)))
(define-fun lh_104 () Bool (= g_s193_226 (|-->| g_s156_189 g_s56_78)))
(define-fun lh_105 () Bool (= g_s194_227 (|-->| g_s156_189 g_s128_155)))
(define-fun lh_106 () Bool (= g_s195_228 (|-->| g_s156_189 g_s132_159)))
(define-fun lh_107 () Bool (= g_s196_229 (|-->| g_s156_189 g_s133_161)))
(define-fun lh_108 () Bool (= g_s197_230 (|-->| g_s156_189 g_s171_204)))
(define-fun lh_109 () Bool (= g_s198_231 (|+->| g_s155_188 g_s137_168)))
(define-fun lh_110 () Bool (= g_s199_232 (|-->| g_s137_168 g_s56_78)))
(define-fun lh_111 () Bool (= g_s200_233 (|-->| g_s137_168 g_s128_155)))
(define-fun lh_112 () Bool (= g_s201_234 (|+->| g_s155_188 g_s199_232)))
(define-fun lh_113 () Bool (= g_s202_235 (|+->| g_s155_188 g_s200_233)))
(define-fun lh_114 () Bool (= g_s203_236 (|-->| g_s136_166 g_s159_192)))
(define-fun lh_115 () Bool (= g_s204_237 (|-->| g_s136_166 g_s163_196)))
(define-fun lh_116 () Bool (= g_s205_238 (|-->| g_s136_166 g_s128_155)))
(define-fun lh_117 () Bool (= g_s206_239 (|-->| g_s136_166 BOOL)))
(define-fun lh_118 () Bool (= g_s207_240 (|-->| g_s137_168 g_s57_79)))
(define-fun lh_119 () Bool (= g_s208_241 (|-->| g_s137_168 g_s127_154)))
(define-fun lh_120 () Bool (= g_s209_243 (|-->| g_s137_168 g_s210_242)))
(define-fun lh_121 () Bool (= g_s211_244 (|-->| g_s135_165 g_s57_79)))
(define-fun lh_122 () Bool (= g_s212_245 (|-->| g_s135_165 g_s127_154)))
(define-fun lh_123 () Bool (= g_s213_246 (|-->| g_s135_165 g_s210_242)))
(define-fun lh_124 () Bool (= g_s214_248 e247))
(define-fun lh_125 () Bool (mem g_s219_249 g_s214_248))
(define-fun lh_126 () Bool (= g_s219_249 e250))
(define-fun lh_127 () Bool (= g_s220_251 (|-->| g_s120_147 g_s214_248)))
(define-fun lh_128 () Bool (mem g_s221_252 g_s62_84))
(define-fun lh_129 () Bool (mem g_s222_253 NAT))
(define-fun lh_130 () Bool (mem g_s223_254 NAT))
(define-fun lh_131 () Bool (mem g_s224_255 NAT))
(define-fun lh_132 () Bool (mem g_s225_256 NAT))
(define-fun lh_133 () Bool (= g_s222_253 e40))
(define-fun lh_134 () Bool (= g_s223_254 e167))
(define-fun lh_135 () Bool (= g_s224_255 e167))
(define-fun lh_136 () Bool (= g_s225_256 e162))
(define-fun lh_137 () Bool (= (card g_s151_183) g_s16_17))
(define-fun lh_138 () Bool (= (card g_s145_177) g_s17_18))
(define-fun lh_139 () Bool (= (card g_s155_188) g_s22_23))
; PO 1 in group 0
(push 1)
(assert (not (=> (and lh_1 lh_2 lh_3 lh_4 lh_5 lh_6 lh_7 lh_8 lh_9 lh_10 lh_11 lh_12 lh_13 lh_14 lh_15 lh_16 lh_17 lh_18 lh_19 lh_20 lh_21 lh_22 lh_23 lh_24 lh_25 lh_26 lh_27 lh_28 lh_29 lh_30 lh_31 lh_32 lh_33) (not (= g_s111_137 e0)))))
(check-sat)
(pop 1)
; PO 2 in group 0
(push 1)
(assert (not (=> (and lh_1 lh_2 lh_3 lh_4 lh_5 lh_6 lh_7 lh_8 lh_9 lh_10 lh_11 lh_12 lh_13 lh_14 lh_15 lh_16 lh_17 lh_18 lh_19 lh_20 lh_21 lh_22 lh_23 lh_24 lh_25 lh_26 lh_27 lh_28 lh_29 lh_30 lh_31 lh_32 lh_33 lh_34 lh_35 lh_36 lh_37 lh_38 lh_39 lh_40 lh_41 lh_42 lh_43 lh_44 lh_45 lh_46 lh_47 lh_48 lh_49 lh_50 lh_51 lh_52 lh_53 lh_54 lh_55 lh_56 lh_57 lh_58 lh_59 lh_60 lh_61 lh_62 lh_63 lh_64 lh_65 lh_66 lh_67 lh_68 lh_69 lh_70 lh_71 lh_72 lh_73 lh_74 lh_75 lh_76 lh_77 lh_78 lh_79 lh_80 lh_81 lh_82 lh_83 lh_84 lh_85 lh_86 lh_87 lh_88 lh_89 lh_90 lh_91 lh_92 lh_93 lh_94 lh_95 lh_96 lh_97 lh_98 lh_99 lh_100 lh_101 lh_102 lh_103 lh_104 lh_105 lh_106 lh_107 lh_108 lh_109 lh_110 lh_111 lh_112 lh_113 lh_114 lh_115 lh_116 lh_117 lh_118 lh_119 lh_120 lh_121 lh_122 lh_123 lh_124 lh_125 lh_126 lh_127 lh_128 lh_129 lh_130 lh_131 lh_132 lh_133 lh_134 lh_135 lh_136) (mem g_s151_183 (FIN g_s151_183)))))
(set-info :status unknown)
(check-sat)
(pop 1)
; PO 3 in group 0
(push 1)
(assert (not (=> (and lh_1 lh_2 lh_3 lh_4 lh_5 lh_6 lh_7 lh_8 lh_9 lh_10 lh_11 lh_12 lh_13 lh_14 lh_15 lh_16 lh_17 lh_18 lh_19 lh_20 lh_21 lh_22 lh_23 lh_24 lh_25 lh_26 lh_27 lh_28 lh_29 lh_30 lh_31 lh_32 lh_33 lh_34 lh_35 lh_36 lh_37 lh_38 lh_39 lh_40 lh_41 lh_42 lh_43 lh_44 lh_45 lh_46 lh_47 lh_48 lh_49 lh_50 lh_51 lh_52 lh_53 lh_54 lh_55 lh_56 lh_57 lh_58 lh_59 lh_60 lh_61 lh_62 lh_63 lh_64 lh_65 lh_66 lh_67 lh_68 lh_69 lh_70 lh_71 lh_72 lh_73 lh_74 lh_75 lh_76 lh_77 lh_78 lh_79 lh_80 lh_81 lh_82 lh_83 lh_84 lh_85 lh_86 lh_87 lh_88 lh_89 lh_90 lh_91 lh_92 lh_93 lh_94 lh_95 lh_96 lh_97 lh_98 lh_99 lh_100 lh_101 lh_102 lh_103 lh_104 lh_105 lh_106 lh_107 lh_108 lh_109 lh_110 lh_111 lh_112 lh_113 lh_114 lh_115 lh_116 lh_117 lh_118 lh_119 lh_120 lh_121 lh_122 lh_123 lh_124 lh_125 lh_126 lh_127 lh_128 lh_129 lh_130 lh_131 lh_132 lh_133 lh_134 lh_135 lh_136 lh_137) (mem g_s145_177 (FIN g_s145_177)))))
(set-info :status unknown)
(check-sat)
(pop 1)
; PO 4 in group 0
(push 1)
(assert (not (=> (and lh_1 lh_2 lh_3 lh_4 lh_5 lh_6 lh_7 lh_8 lh_9 lh_10 lh_11 lh_12 lh_13 lh_14 lh_15 lh_16 lh_17 lh_18 lh_19 lh_20 lh_21 lh_22 lh_23 lh_24 lh_25 lh_26 lh_27 lh_28 lh_29 lh_30 lh_31 lh_32 lh_33 lh_34 lh_35 lh_36 lh_37 lh_38 lh_39 lh_40 lh_41 lh_42 lh_43 lh_44 lh_45 lh_46 lh_47 lh_48 lh_49 lh_50 lh_51 lh_52 lh_53 lh_54 lh_55 lh_56 lh_57 lh_58 lh_59 lh_60 lh_61 lh_62 lh_63 lh_64 lh_65 lh_66 lh_67 lh_68 lh_69 lh_70 lh_71 lh_72 lh_73 lh_74 lh_75 lh_76 lh_77 lh_78 lh_79 lh_80 lh_81 lh_82 lh_83 lh_84 lh_85 lh_86 lh_87 lh_88 lh_89 lh_90 lh_91 lh_92 lh_93 lh_94 lh_95 lh_96 lh_97 lh_98 lh_99 lh_100 lh_101 lh_102 lh_103 lh_104 lh_105 lh_106 lh_107 lh_108 lh_109 lh_110 lh_111 lh_112 lh_113 lh_114 lh_115 lh_116 lh_117 lh_118 lh_119 lh_120 lh_121 lh_122 lh_123 lh_124 lh_125 lh_126 lh_127 lh_128 lh_129 lh_130 lh_131 lh_132 lh_133 lh_134 lh_135 lh_136 lh_137 lh_138) (mem g_s155_188 (FIN g_s155_188)))))
(set-info :status unknown)
(check-sat)
(pop 1)
; PO 5 in group 0
(push 1)
(assert (not (=> (and lh_1 lh_2 lh_3 lh_4 lh_5 lh_6 lh_7 lh_8 lh_9 lh_10 lh_11 lh_12 lh_13 lh_14 lh_15 lh_16 lh_17 lh_18 lh_19 lh_20 lh_21 lh_22 lh_23 lh_24 lh_25 lh_26 lh_27 lh_28 lh_29 lh_30 lh_31 lh_32 lh_33 lh_34 lh_35 lh_36 lh_37 lh_38 lh_39 lh_40 lh_41 lh_42 lh_43 lh_44 lh_45 lh_46 lh_47 lh_48 lh_49 lh_50 lh_51 lh_52 lh_53 lh_54 lh_55 lh_56 lh_57 lh_58 lh_59 lh_60 lh_61 lh_62 lh_63 lh_64 lh_65 lh_66 lh_67 lh_68 lh_69 lh_70 lh_71 lh_72 lh_73 lh_74 lh_75 lh_76 lh_77 lh_78 lh_79 lh_80 lh_81 lh_82 lh_83 lh_84 lh_85 lh_86 lh_87 lh_88 lh_89 lh_90 lh_91 lh_92 lh_93 lh_94 lh_95 lh_96 lh_97 lh_98 lh_99 lh_100 lh_101 lh_102 lh_103 lh_104 lh_105 lh_106 lh_107 lh_108 lh_109 lh_110 lh_111 lh_112 lh_113 lh_114 lh_115 lh_116 lh_117 lh_118 lh_119 lh_120 lh_121 lh_122 lh_123 lh_124 lh_125 lh_126 lh_127 lh_128 lh_129 lh_130 lh_131 lh_132 lh_133 lh_134 lh_135 lh_136 lh_137 lh_138 lh_139) (mem g_s156_189 (FIN g_s156_189)))))
(set-info :status unknown)
(check-sat)
(pop 1)
(pop 1)
; PO group 1 
(push 1)
(assert |def_B definitions|)
(assert |def_ctx|)
(assert |def_cst|)
(assert |def_lprp|)
(assert |def_inprp|)
(assert |def_inext|)
(assert |def_seext|)
(assert |def_inv|)
(assert |def_ass|)
(assert (mem g_s250_278 g_s145_177))
(assert (mem g_s251_279 g_s15_15))
(assert (mem g_s251_279 (dom g_s226_257)))
; PO 1 in group 1
(assert (not (mem g_s226_257 (|+->| (dom g_s226_257) (ran g_s226_257)))))
(set-info :status unknown)
(check-sat)
(pop 1)
; PO group 2 
(push 1)
(assert |def_B definitions|)
(assert |def_ctx|)
(assert |def_cst|)
(assert |def_lprp|)
(assert |def_inprp|)
(assert |def_inext|)
(assert |def_seext|)
(assert |def_inv|)
(assert |def_ass|)
(assert (mem g_s250_280 g_s151_183))
(assert (mem g_s251_279 g_s15_15))
(assert (mem g_s251_279 (dom g_s227_258)))
; PO 1 in group 2
(assert (not (mem g_s227_258 (|+->| (dom g_s227_258) (ran g_s227_258)))))
(set-info :status unknown)
(check-sat)
(pop 1)
(exit)